-324 -343 0
-340 -343 0
-341 -342 -343 0
-342 -343 0
d -341 -342 -343 0
-343 0
-20 0
1 0
324 0
39 0
-305 0
-58 0
19 0
-290 0
-38 0
-308 0
-35 0
-328 0
342 0
4 0
339 0
24 0
-323 0
-53 0
-65 0
-23 0
-68 0
-293 0
-83 0
-88 0
-103 0
-260 0
-278 0
-275 0
-50 0
-320 0
-43 0
-5 0
-313 0
102 0
327 0
162 0
167 0
9 0
182 0
16 0
199 0
196 0
129 0
241 0
122 0
84 0
309 0
99 0
114 0
137 0
211 0
226 0
264 0
117 0
244 0
214 0
147 0
229 0
132 0
181 0
144 0
249 0
234 0
-121 0
-166 0
-6 0
-7 0
0
